predicate cumulativeChoco(array [int] of var int: s,array [int] of var int: d,array [int] of var int: r,var int: b);
array [1..2] of int: X_INTRODUCED_48_ = [1,5];
array [1..2] of int: X_INTRODUCED_208_ = [1,-1];
array [1..4] of int: X_INTRODUCED_220_ = [-1,-1,-1,-1];
array [1..5] of int: X_INTRODUCED_250_ = [2,3,7,8,12];
array [1..5] of int: X_INTRODUCED_269_ = [1,1,1,1,1];
array [1..5] of int: X_INTRODUCED_271_ = [1,-1,-1,-1,-1];
array [1..2] of int: X_INTRODUCED_275_ = [1,-25];
array [1..2] of int: X_INTRODUCED_281_ = [1,-30];
var 0..25: X_INTRODUCED_0_;
var 0..25: X_INTRODUCED_1_;
var 0..25: X_INTRODUCED_2_;
var 0..25: X_INTRODUCED_3_;
var 0..25: X_INTRODUCED_4_;
var 0..25: X_INTRODUCED_5_;
var 0..25: X_INTRODUCED_6_;
var 0..25: X_INTRODUCED_7_;
var 0..25: X_INTRODUCED_8_;
var 0..25: X_INTRODUCED_9_;
var 0..25: X_INTRODUCED_10_;
var 0..25: X_INTRODUCED_11_;
var 0..25: X_INTRODUCED_12_;
var 0..25: X_INTRODUCED_13_;
var 0..25: X_INTRODUCED_14_;
var 0..25: X_INTRODUCED_15_;
var 0..25: X_INTRODUCED_16_;
var 0..25: X_INTRODUCED_17_;
var 0..25: X_INTRODUCED_18_;
var 0..25: X_INTRODUCED_19_;
var 0..30: X_INTRODUCED_20_;
var 0..30: X_INTRODUCED_21_;
var 0..30: X_INTRODUCED_22_;
var 0..30: X_INTRODUCED_23_;
var 0..1: X_INTRODUCED_24_;
var 0..1: X_INTRODUCED_25_;
var 0..1: X_INTRODUCED_26_;
var 0..1: X_INTRODUCED_27_;
var bool: X_INTRODUCED_29_ ::var_is_introduced :: is_defined_var;
var 0..1: X_INTRODUCED_30_ ::var_is_introduced :: is_defined_var;
var bool: X_INTRODUCED_32_ ::var_is_introduced :: is_defined_var;
var 0..1: X_INTRODUCED_33_ ::var_is_introduced :: is_defined_var;
var 2..7: X_INTRODUCED_34_ ::var_is_introduced :: is_defined_var;
var bool: X_INTRODUCED_35_ ::var_is_introduced :: is_defined_var;
var 0..1: X_INTRODUCED_36_ ::var_is_introduced :: is_defined_var;
var 3..8: X_INTRODUCED_37_ ::var_is_introduced :: is_defined_var;
var bool: X_INTRODUCED_38_ ::var_is_introduced :: is_defined_var;
var 0..1: X_INTRODUCED_39_ ::var_is_introduced :: is_defined_var;
var 4..9: X_INTRODUCED_40_ ::var_is_introduced :: is_defined_var;
var 1..6: X_INTRODUCED_44_ ::var_is_introduced :: is_defined_var;
var 1..6: X_INTRODUCED_49_ ::var_is_introduced :: is_defined_var;
var 1..6: X_INTRODUCED_50_ ::var_is_introduced :: is_defined_var;
var 1..4: X_INTRODUCED_51_ ::var_is_introduced :: is_defined_var;
var bool: X_INTRODUCED_52_ ::var_is_introduced :: is_defined_var;
var 0..1: X_INTRODUCED_53_ ::var_is_introduced :: is_defined_var;
var bool: X_INTRODUCED_55_ ::var_is_introduced :: is_defined_var;
var 0..1: X_INTRODUCED_56_ ::var_is_introduced :: is_defined_var;
var 2..7: X_INTRODUCED_57_ ::var_is_introduced :: is_defined_var;
var bool: X_INTRODUCED_58_ ::var_is_introduced :: is_defined_var;
var 0..1: X_INTRODUCED_59_ ::var_is_introduced :: is_defined_var;
var 3..8: X_INTRODUCED_60_ ::var_is_introduced :: is_defined_var;
var bool: X_INTRODUCED_61_ ::var_is_introduced :: is_defined_var;
var 0..1: X_INTRODUCED_62_ ::var_is_introduced :: is_defined_var;
var 4..9: X_INTRODUCED_63_ ::var_is_introduced :: is_defined_var;
var 1..6: X_INTRODUCED_67_ ::var_is_introduced :: is_defined_var;
var 1..6: X_INTRODUCED_71_ ::var_is_introduced :: is_defined_var;
var 1..6: X_INTRODUCED_72_ ::var_is_introduced :: is_defined_var;
var 1..4: X_INTRODUCED_73_ ::var_is_introduced :: is_defined_var;
var bool: X_INTRODUCED_74_ ::var_is_introduced :: is_defined_var;
var 0..1: X_INTRODUCED_75_ ::var_is_introduced :: is_defined_var;
var bool: X_INTRODUCED_77_ ::var_is_introduced :: is_defined_var;
var 0..1: X_INTRODUCED_78_ ::var_is_introduced :: is_defined_var;
var 2..7: X_INTRODUCED_79_ ::var_is_introduced :: is_defined_var;
var bool: X_INTRODUCED_80_ ::var_is_introduced :: is_defined_var;
var 0..1: X_INTRODUCED_81_ ::var_is_introduced :: is_defined_var;
var 3..8: X_INTRODUCED_82_ ::var_is_introduced :: is_defined_var;
var bool: X_INTRODUCED_83_ ::var_is_introduced :: is_defined_var;
var 0..1: X_INTRODUCED_84_ ::var_is_introduced :: is_defined_var;
var 4..9: X_INTRODUCED_85_ ::var_is_introduced :: is_defined_var;
var 1..6: X_INTRODUCED_89_ ::var_is_introduced :: is_defined_var;
var 1..6: X_INTRODUCED_93_ ::var_is_introduced :: is_defined_var;
var 1..6: X_INTRODUCED_94_ ::var_is_introduced :: is_defined_var;
var 1..4: X_INTRODUCED_95_ ::var_is_introduced :: is_defined_var;
var bool: X_INTRODUCED_96_ ::var_is_introduced :: is_defined_var;
var 0..1: X_INTRODUCED_97_ ::var_is_introduced :: is_defined_var;
var bool: X_INTRODUCED_99_ ::var_is_introduced :: is_defined_var;
var 0..1: X_INTRODUCED_100_ ::var_is_introduced :: is_defined_var;
var 2..7: X_INTRODUCED_101_ ::var_is_introduced :: is_defined_var;
var bool: X_INTRODUCED_102_ ::var_is_introduced :: is_defined_var;
var 0..1: X_INTRODUCED_103_ ::var_is_introduced :: is_defined_var;
var 3..8: X_INTRODUCED_104_ ::var_is_introduced :: is_defined_var;
var bool: X_INTRODUCED_105_ ::var_is_introduced :: is_defined_var;
var 0..1: X_INTRODUCED_106_ ::var_is_introduced :: is_defined_var;
var 4..9: X_INTRODUCED_107_ ::var_is_introduced :: is_defined_var;
var 1..6: X_INTRODUCED_111_ ::var_is_introduced :: is_defined_var;
var 1..6: X_INTRODUCED_115_ ::var_is_introduced :: is_defined_var;
var 1..6: X_INTRODUCED_116_ ::var_is_introduced :: is_defined_var;
var 1..4: X_INTRODUCED_117_ ::var_is_introduced :: is_defined_var;
var bool: X_INTRODUCED_118_ ::var_is_introduced :: is_defined_var;
var 0..1: X_INTRODUCED_119_ ::var_is_introduced :: is_defined_var;
var bool: X_INTRODUCED_121_ ::var_is_introduced :: is_defined_var;
var 0..1: X_INTRODUCED_122_ ::var_is_introduced :: is_defined_var;
var 2..7: X_INTRODUCED_123_ ::var_is_introduced :: is_defined_var;
var bool: X_INTRODUCED_124_ ::var_is_introduced :: is_defined_var;
var 0..1: X_INTRODUCED_125_ ::var_is_introduced :: is_defined_var;
var 3..8: X_INTRODUCED_126_ ::var_is_introduced :: is_defined_var;
var bool: X_INTRODUCED_127_ ::var_is_introduced :: is_defined_var;
var 0..1: X_INTRODUCED_128_ ::var_is_introduced :: is_defined_var;
var 4..9: X_INTRODUCED_129_ ::var_is_introduced :: is_defined_var;
var 1..6: X_INTRODUCED_133_ ::var_is_introduced :: is_defined_var;
var 1..6: X_INTRODUCED_137_ ::var_is_introduced :: is_defined_var;
var 1..6: X_INTRODUCED_138_ ::var_is_introduced :: is_defined_var;
var 1..4: X_INTRODUCED_139_ ::var_is_introduced :: is_defined_var;
var 0..2: X_INTRODUCED_141_ ::var_is_introduced :: is_defined_var;
var 0..3: X_INTRODUCED_143_ ::var_is_introduced :: is_defined_var;
var 0..4: X_INTRODUCED_145_ ::var_is_introduced :: is_defined_var;
var 0..4: X_INTRODUCED_153_ ::var_is_introduced :: is_defined_var;
var 0..4: X_INTRODUCED_154_ ::var_is_introduced :: is_defined_var;
var 1..4: X_INTRODUCED_155_ ::var_is_introduced :: is_defined_var;
var 0..2: X_INTRODUCED_156_ ::var_is_introduced :: is_defined_var;
var 0..3: X_INTRODUCED_157_ ::var_is_introduced :: is_defined_var;
var 0..4: X_INTRODUCED_158_ ::var_is_introduced :: is_defined_var;
var 0..4: X_INTRODUCED_166_ ::var_is_introduced :: is_defined_var;
var 0..4: X_INTRODUCED_167_ ::var_is_introduced :: is_defined_var;
var 1..4: X_INTRODUCED_168_ ::var_is_introduced :: is_defined_var;
var 0..2: X_INTRODUCED_169_ ::var_is_introduced :: is_defined_var;
var 0..3: X_INTRODUCED_170_ ::var_is_introduced :: is_defined_var;
var 0..4: X_INTRODUCED_171_ ::var_is_introduced :: is_defined_var;
var 0..4: X_INTRODUCED_179_ ::var_is_introduced :: is_defined_var;
var 0..4: X_INTRODUCED_180_ ::var_is_introduced :: is_defined_var;
var 1..4: X_INTRODUCED_181_ ::var_is_introduced :: is_defined_var;
var 0..2: X_INTRODUCED_182_ ::var_is_introduced :: is_defined_var;
var 0..3: X_INTRODUCED_183_ ::var_is_introduced :: is_defined_var;
var 0..4: X_INTRODUCED_184_ ::var_is_introduced :: is_defined_var;
var 0..4: X_INTRODUCED_192_ ::var_is_introduced :: is_defined_var;
var 0..4: X_INTRODUCED_193_ ::var_is_introduced :: is_defined_var;
var 1..4: X_INTRODUCED_194_ ::var_is_introduced :: is_defined_var;
var 0..2: X_INTRODUCED_195_ ::var_is_introduced :: is_defined_var;
var 0..3: X_INTRODUCED_196_ ::var_is_introduced :: is_defined_var;
var 0..4: X_INTRODUCED_197_ ::var_is_introduced :: is_defined_var;
var 0..4: X_INTRODUCED_205_ ::var_is_introduced :: is_defined_var;
var 0..4: X_INTRODUCED_206_ ::var_is_introduced :: is_defined_var;
var 1..4: X_INTRODUCED_207_ ::var_is_introduced :: is_defined_var;
var 0..3: X_INTRODUCED_209_ ::var_is_introduced :: is_defined_var;
var 0..3: X_INTRODUCED_210_ ::var_is_introduced :: is_defined_var;
var 0..3: X_INTRODUCED_211_ ::var_is_introduced :: is_defined_var;
var 0..3: X_INTRODUCED_212_ ::var_is_introduced :: is_defined_var;
var 0..3: X_INTRODUCED_213_ ::var_is_introduced :: is_defined_var;
var 0..120: objective:: output_var:: is_defined_var;
var 0..750: X_INTRODUCED_215_ ::var_is_introduced :: is_defined_var;
var 0..750: X_INTRODUCED_216_ ::var_is_introduced :: is_defined_var;
var 0..750: X_INTRODUCED_217_ ::var_is_introduced :: is_defined_var;
var 0..750: X_INTRODUCED_218_ ::var_is_introduced :: is_defined_var;
var 0..750: X_INTRODUCED_221_ ::var_is_introduced :: is_defined_var;
var 0..750: X_INTRODUCED_222_ ::var_is_introduced :: is_defined_var;
var 0..750: X_INTRODUCED_223_ ::var_is_introduced :: is_defined_var;
var 0..750: X_INTRODUCED_224_ ::var_is_introduced :: is_defined_var;
var 0..750: X_INTRODUCED_226_ ::var_is_introduced :: is_defined_var;
var 0..750: X_INTRODUCED_227_ ::var_is_introduced :: is_defined_var;
var 0..750: X_INTRODUCED_228_ ::var_is_introduced :: is_defined_var;
var 0..750: X_INTRODUCED_229_ ::var_is_introduced :: is_defined_var;
var 0..750: X_INTRODUCED_231_ ::var_is_introduced :: is_defined_var;
var 0..750: X_INTRODUCED_232_ ::var_is_introduced :: is_defined_var;
var 0..750: X_INTRODUCED_233_ ::var_is_introduced :: is_defined_var;
var 0..750: X_INTRODUCED_234_ ::var_is_introduced :: is_defined_var;
var 0..750: X_INTRODUCED_236_ ::var_is_introduced :: is_defined_var;
var 0..750: X_INTRODUCED_237_ ::var_is_introduced :: is_defined_var;
var 0..750: X_INTRODUCED_238_ ::var_is_introduced :: is_defined_var;
var 0..750: X_INTRODUCED_239_ ::var_is_introduced :: is_defined_var;
array [1..20] of var int: x:: output_array([1..4,1..5]) = [X_INTRODUCED_0_,X_INTRODUCED_1_,X_INTRODUCED_2_,X_INTRODUCED_3_,X_INTRODUCED_4_,X_INTRODUCED_5_,X_INTRODUCED_6_,X_INTRODUCED_7_,X_INTRODUCED_8_,X_INTRODUCED_9_,X_INTRODUCED_10_,X_INTRODUCED_11_,X_INTRODUCED_12_,X_INTRODUCED_13_,X_INTRODUCED_14_,X_INTRODUCED_15_,X_INTRODUCED_16_,X_INTRODUCED_17_,X_INTRODUCED_18_,X_INTRODUCED_19_];
array [1..4] of var int: m:: output_array([1..4]) = [X_INTRODUCED_20_,X_INTRODUCED_21_,X_INTRODUCED_22_,X_INTRODUCED_23_];
array [1..4] of var int: used:: output_array([1..4]) = [X_INTRODUCED_24_,X_INTRODUCED_25_,X_INTRODUCED_26_,X_INTRODUCED_27_];
array [1..5] of var int: first = [X_INTRODUCED_51_,X_INTRODUCED_73_,X_INTRODUCED_95_,X_INTRODUCED_117_,X_INTRODUCED_139_];
array [1..5] of var int: dur = [X_INTRODUCED_209_,X_INTRODUCED_210_,X_INTRODUCED_211_,X_INTRODUCED_212_,X_INTRODUCED_213_];
array [1..40] of var int: X_INTRODUCED_272_ ::var_is_introduced  = [X_INTRODUCED_0_,0,X_INTRODUCED_1_,0,X_INTRODUCED_2_,0,X_INTRODUCED_3_,0,X_INTRODUCED_4_,X_INTRODUCED_20_,X_INTRODUCED_5_,0,X_INTRODUCED_6_,0,X_INTRODUCED_7_,0,X_INTRODUCED_8_,0,X_INTRODUCED_9_,X_INTRODUCED_21_,X_INTRODUCED_10_,0,X_INTRODUCED_11_,0,X_INTRODUCED_12_,0,X_INTRODUCED_13_,0,X_INTRODUCED_14_,X_INTRODUCED_22_,X_INTRODUCED_15_,0,X_INTRODUCED_16_,0,X_INTRODUCED_17_,0,X_INTRODUCED_18_,0,X_INTRODUCED_19_,X_INTRODUCED_23_];
constraint int_lin_eq(X_INTRODUCED_48_,[X_INTRODUCED_44_,X_INTRODUCED_30_],6):: defines_var(X_INTRODUCED_44_);
constraint int_min(X_INTRODUCED_34_,X_INTRODUCED_44_,X_INTRODUCED_49_):: defines_var(X_INTRODUCED_49_);
constraint int_min(X_INTRODUCED_37_,X_INTRODUCED_49_,X_INTRODUCED_50_):: defines_var(X_INTRODUCED_50_);
constraint int_min(X_INTRODUCED_40_,X_INTRODUCED_50_,X_INTRODUCED_51_):: defines_var(X_INTRODUCED_51_);
constraint int_lin_eq(X_INTRODUCED_48_,[X_INTRODUCED_67_,X_INTRODUCED_53_],6):: defines_var(X_INTRODUCED_67_);
constraint int_min(X_INTRODUCED_57_,X_INTRODUCED_67_,X_INTRODUCED_71_):: defines_var(X_INTRODUCED_71_);
constraint int_min(X_INTRODUCED_60_,X_INTRODUCED_71_,X_INTRODUCED_72_):: defines_var(X_INTRODUCED_72_);
constraint int_min(X_INTRODUCED_63_,X_INTRODUCED_72_,X_INTRODUCED_73_):: defines_var(X_INTRODUCED_73_);
constraint int_lin_eq(X_INTRODUCED_48_,[X_INTRODUCED_89_,X_INTRODUCED_75_],6):: defines_var(X_INTRODUCED_89_);
constraint int_min(X_INTRODUCED_79_,X_INTRODUCED_89_,X_INTRODUCED_93_):: defines_var(X_INTRODUCED_93_);
constraint int_min(X_INTRODUCED_82_,X_INTRODUCED_93_,X_INTRODUCED_94_):: defines_var(X_INTRODUCED_94_);
constraint int_min(X_INTRODUCED_85_,X_INTRODUCED_94_,X_INTRODUCED_95_):: defines_var(X_INTRODUCED_95_);
constraint int_lin_eq(X_INTRODUCED_48_,[X_INTRODUCED_111_,X_INTRODUCED_97_],6):: defines_var(X_INTRODUCED_111_);
constraint int_min(X_INTRODUCED_101_,X_INTRODUCED_111_,X_INTRODUCED_115_):: defines_var(X_INTRODUCED_115_);
constraint int_min(X_INTRODUCED_104_,X_INTRODUCED_115_,X_INTRODUCED_116_):: defines_var(X_INTRODUCED_116_);
constraint int_min(X_INTRODUCED_107_,X_INTRODUCED_116_,X_INTRODUCED_117_):: defines_var(X_INTRODUCED_117_);
constraint int_lin_eq(X_INTRODUCED_48_,[X_INTRODUCED_133_,X_INTRODUCED_119_],6):: defines_var(X_INTRODUCED_133_);
constraint int_min(X_INTRODUCED_123_,X_INTRODUCED_133_,X_INTRODUCED_137_):: defines_var(X_INTRODUCED_137_);
constraint int_min(X_INTRODUCED_126_,X_INTRODUCED_137_,X_INTRODUCED_138_):: defines_var(X_INTRODUCED_138_);
constraint int_min(X_INTRODUCED_129_,X_INTRODUCED_138_,X_INTRODUCED_139_):: defines_var(X_INTRODUCED_139_);
constraint int_max(X_INTRODUCED_141_,X_INTRODUCED_30_,X_INTRODUCED_153_):: defines_var(X_INTRODUCED_153_);
constraint int_max(X_INTRODUCED_143_,X_INTRODUCED_153_,X_INTRODUCED_154_):: defines_var(X_INTRODUCED_154_);
constraint int_max(X_INTRODUCED_145_,X_INTRODUCED_154_,X_INTRODUCED_155_):: defines_var(X_INTRODUCED_155_);
constraint int_max(X_INTRODUCED_156_,X_INTRODUCED_53_,X_INTRODUCED_166_):: defines_var(X_INTRODUCED_166_);
constraint int_max(X_INTRODUCED_157_,X_INTRODUCED_166_,X_INTRODUCED_167_):: defines_var(X_INTRODUCED_167_);
constraint int_max(X_INTRODUCED_158_,X_INTRODUCED_167_,X_INTRODUCED_168_):: defines_var(X_INTRODUCED_168_);
constraint int_max(X_INTRODUCED_169_,X_INTRODUCED_75_,X_INTRODUCED_179_):: defines_var(X_INTRODUCED_179_);
constraint int_max(X_INTRODUCED_170_,X_INTRODUCED_179_,X_INTRODUCED_180_):: defines_var(X_INTRODUCED_180_);
constraint int_max(X_INTRODUCED_171_,X_INTRODUCED_180_,X_INTRODUCED_181_):: defines_var(X_INTRODUCED_181_);
constraint int_max(X_INTRODUCED_182_,X_INTRODUCED_97_,X_INTRODUCED_192_):: defines_var(X_INTRODUCED_192_);
constraint int_max(X_INTRODUCED_183_,X_INTRODUCED_192_,X_INTRODUCED_193_):: defines_var(X_INTRODUCED_193_);
constraint int_max(X_INTRODUCED_184_,X_INTRODUCED_193_,X_INTRODUCED_194_):: defines_var(X_INTRODUCED_194_);
constraint int_max(X_INTRODUCED_195_,X_INTRODUCED_119_,X_INTRODUCED_205_):: defines_var(X_INTRODUCED_205_);
constraint int_max(X_INTRODUCED_196_,X_INTRODUCED_205_,X_INTRODUCED_206_):: defines_var(X_INTRODUCED_206_);
constraint int_max(X_INTRODUCED_197_,X_INTRODUCED_206_,X_INTRODUCED_207_):: defines_var(X_INTRODUCED_207_);
constraint int_lin_le(X_INTRODUCED_220_,[X_INTRODUCED_215_,X_INTRODUCED_216_,X_INTRODUCED_217_,X_INTRODUCED_218_],-12);
constraint int_lin_le(X_INTRODUCED_220_,[X_INTRODUCED_221_,X_INTRODUCED_222_,X_INTRODUCED_223_,X_INTRODUCED_224_],-8);
constraint int_lin_le(X_INTRODUCED_220_,[X_INTRODUCED_226_,X_INTRODUCED_227_,X_INTRODUCED_228_,X_INTRODUCED_229_],-11);
constraint int_lin_le(X_INTRODUCED_220_,[X_INTRODUCED_231_,X_INTRODUCED_232_,X_INTRODUCED_233_,X_INTRODUCED_234_],-30);
constraint int_lin_le(X_INTRODUCED_220_,[X_INTRODUCED_236_,X_INTRODUCED_237_,X_INTRODUCED_238_,X_INTRODUCED_239_],-2);
constraint int_lin_le(X_INTRODUCED_250_,[X_INTRODUCED_0_,X_INTRODUCED_1_,X_INTRODUCED_2_,X_INTRODUCED_3_,X_INTRODUCED_4_],25);
constraint int_lin_le(X_INTRODUCED_250_,[X_INTRODUCED_5_,X_INTRODUCED_6_,X_INTRODUCED_7_,X_INTRODUCED_8_,X_INTRODUCED_9_],25);
constraint int_lin_le(X_INTRODUCED_250_,[X_INTRODUCED_10_,X_INTRODUCED_11_,X_INTRODUCED_12_,X_INTRODUCED_13_,X_INTRODUCED_14_],25);
constraint int_lin_le(X_INTRODUCED_250_,[X_INTRODUCED_15_,X_INTRODUCED_16_,X_INTRODUCED_17_,X_INTRODUCED_18_,X_INTRODUCED_19_],25);
constraint cumulativeChoco(first,dur,X_INTRODUCED_269_,2);
constraint int_lin_eq(X_INTRODUCED_271_,[objective,X_INTRODUCED_20_,X_INTRODUCED_21_,X_INTRODUCED_22_,X_INTRODUCED_23_],0):: defines_var(objective);
constraint int_lin_le(X_INTRODUCED_275_,[X_INTRODUCED_0_,X_INTRODUCED_24_],0);
constraint int_lin_le(X_INTRODUCED_275_,[X_INTRODUCED_1_,X_INTRODUCED_24_],0);
constraint int_lin_le(X_INTRODUCED_275_,[X_INTRODUCED_2_,X_INTRODUCED_24_],0);
constraint int_lin_le(X_INTRODUCED_275_,[X_INTRODUCED_3_,X_INTRODUCED_24_],0);
constraint int_lin_le(X_INTRODUCED_275_,[X_INTRODUCED_4_,X_INTRODUCED_24_],0);
constraint int_lin_le(X_INTRODUCED_275_,[X_INTRODUCED_5_,X_INTRODUCED_25_],0);
constraint int_lin_le(X_INTRODUCED_275_,[X_INTRODUCED_6_,X_INTRODUCED_25_],0);
constraint int_lin_le(X_INTRODUCED_275_,[X_INTRODUCED_7_,X_INTRODUCED_25_],0);
constraint int_lin_le(X_INTRODUCED_275_,[X_INTRODUCED_8_,X_INTRODUCED_25_],0);
constraint int_lin_le(X_INTRODUCED_275_,[X_INTRODUCED_9_,X_INTRODUCED_25_],0);
constraint int_lin_le(X_INTRODUCED_275_,[X_INTRODUCED_10_,X_INTRODUCED_26_],0);
constraint int_lin_le(X_INTRODUCED_275_,[X_INTRODUCED_11_,X_INTRODUCED_26_],0);
constraint int_lin_le(X_INTRODUCED_275_,[X_INTRODUCED_12_,X_INTRODUCED_26_],0);
constraint int_lin_le(X_INTRODUCED_275_,[X_INTRODUCED_13_,X_INTRODUCED_26_],0);
constraint int_lin_le(X_INTRODUCED_275_,[X_INTRODUCED_14_,X_INTRODUCED_26_],0);
constraint int_lin_le(X_INTRODUCED_275_,[X_INTRODUCED_15_,X_INTRODUCED_27_],0);
constraint int_lin_le(X_INTRODUCED_275_,[X_INTRODUCED_16_,X_INTRODUCED_27_],0);
constraint int_lin_le(X_INTRODUCED_275_,[X_INTRODUCED_17_,X_INTRODUCED_27_],0);
constraint int_lin_le(X_INTRODUCED_275_,[X_INTRODUCED_18_,X_INTRODUCED_27_],0);
constraint int_lin_le(X_INTRODUCED_275_,[X_INTRODUCED_19_,X_INTRODUCED_27_],0);
constraint int_lin_le(X_INTRODUCED_281_,[X_INTRODUCED_20_,X_INTRODUCED_24_],0);
constraint int_lin_le(X_INTRODUCED_281_,[X_INTRODUCED_21_,X_INTRODUCED_25_],0);
constraint int_lin_le(X_INTRODUCED_281_,[X_INTRODUCED_22_,X_INTRODUCED_26_],0);
constraint int_lin_le(X_INTRODUCED_281_,[X_INTRODUCED_23_,X_INTRODUCED_27_],0);
constraint int_lin_le(X_INTRODUCED_208_,[X_INTRODUCED_24_,X_INTRODUCED_20_],0);
constraint int_lin_le(X_INTRODUCED_208_,[X_INTRODUCED_25_,X_INTRODUCED_21_],0);
constraint int_lin_le(X_INTRODUCED_208_,[X_INTRODUCED_26_,X_INTRODUCED_22_],0);
constraint int_lin_le(X_INTRODUCED_208_,[X_INTRODUCED_27_,X_INTRODUCED_23_],0);
constraint int_lin_le(X_INTRODUCED_208_,[X_INTRODUCED_24_,X_INTRODUCED_25_],0);
constraint int_lin_le(X_INTRODUCED_208_,[X_INTRODUCED_25_,X_INTRODUCED_26_],0);
constraint int_lin_le(X_INTRODUCED_208_,[X_INTRODUCED_26_,X_INTRODUCED_27_],0);
constraint int_le_reif(1,X_INTRODUCED_0_,X_INTRODUCED_29_):: defines_var(X_INTRODUCED_29_);
constraint bool2int(X_INTRODUCED_29_,X_INTRODUCED_30_):: defines_var(X_INTRODUCED_30_);
constraint int_le_reif(1,X_INTRODUCED_5_,X_INTRODUCED_32_):: defines_var(X_INTRODUCED_32_);
constraint bool2int(X_INTRODUCED_32_,X_INTRODUCED_33_):: defines_var(X_INTRODUCED_33_);
constraint int_lin_eq([-5,-1],[X_INTRODUCED_33_,X_INTRODUCED_34_],-7):: defines_var(X_INTRODUCED_34_);
constraint int_le_reif(1,X_INTRODUCED_10_,X_INTRODUCED_35_):: defines_var(X_INTRODUCED_35_);
constraint bool2int(X_INTRODUCED_35_,X_INTRODUCED_36_):: defines_var(X_INTRODUCED_36_);
constraint int_lin_eq([-5,-1],[X_INTRODUCED_36_,X_INTRODUCED_37_],-8):: defines_var(X_INTRODUCED_37_);
constraint int_le_reif(1,X_INTRODUCED_15_,X_INTRODUCED_38_):: defines_var(X_INTRODUCED_38_);
constraint bool2int(X_INTRODUCED_38_,X_INTRODUCED_39_):: defines_var(X_INTRODUCED_39_);
constraint int_lin_eq([-5,-1],[X_INTRODUCED_39_,X_INTRODUCED_40_],-9):: defines_var(X_INTRODUCED_40_);
constraint int_le_reif(1,X_INTRODUCED_1_,X_INTRODUCED_52_):: defines_var(X_INTRODUCED_52_);
constraint bool2int(X_INTRODUCED_52_,X_INTRODUCED_53_):: defines_var(X_INTRODUCED_53_);
constraint int_le_reif(1,X_INTRODUCED_6_,X_INTRODUCED_55_):: defines_var(X_INTRODUCED_55_);
constraint bool2int(X_INTRODUCED_55_,X_INTRODUCED_56_):: defines_var(X_INTRODUCED_56_);
constraint int_lin_eq([-5,-1],[X_INTRODUCED_56_,X_INTRODUCED_57_],-7):: defines_var(X_INTRODUCED_57_);
constraint int_le_reif(1,X_INTRODUCED_11_,X_INTRODUCED_58_):: defines_var(X_INTRODUCED_58_);
constraint bool2int(X_INTRODUCED_58_,X_INTRODUCED_59_):: defines_var(X_INTRODUCED_59_);
constraint int_lin_eq([-5,-1],[X_INTRODUCED_59_,X_INTRODUCED_60_],-8):: defines_var(X_INTRODUCED_60_);
constraint int_le_reif(1,X_INTRODUCED_16_,X_INTRODUCED_61_):: defines_var(X_INTRODUCED_61_);
constraint bool2int(X_INTRODUCED_61_,X_INTRODUCED_62_):: defines_var(X_INTRODUCED_62_);
constraint int_lin_eq([-5,-1],[X_INTRODUCED_62_,X_INTRODUCED_63_],-9):: defines_var(X_INTRODUCED_63_);
constraint int_le_reif(1,X_INTRODUCED_2_,X_INTRODUCED_74_):: defines_var(X_INTRODUCED_74_);
constraint bool2int(X_INTRODUCED_74_,X_INTRODUCED_75_):: defines_var(X_INTRODUCED_75_);
constraint int_le_reif(1,X_INTRODUCED_7_,X_INTRODUCED_77_):: defines_var(X_INTRODUCED_77_);
constraint bool2int(X_INTRODUCED_77_,X_INTRODUCED_78_):: defines_var(X_INTRODUCED_78_);
constraint int_lin_eq([-5,-1],[X_INTRODUCED_78_,X_INTRODUCED_79_],-7):: defines_var(X_INTRODUCED_79_);
constraint int_le_reif(1,X_INTRODUCED_12_,X_INTRODUCED_80_):: defines_var(X_INTRODUCED_80_);
constraint bool2int(X_INTRODUCED_80_,X_INTRODUCED_81_):: defines_var(X_INTRODUCED_81_);
constraint int_lin_eq([-5,-1],[X_INTRODUCED_81_,X_INTRODUCED_82_],-8):: defines_var(X_INTRODUCED_82_);
constraint int_le_reif(1,X_INTRODUCED_17_,X_INTRODUCED_83_):: defines_var(X_INTRODUCED_83_);
constraint bool2int(X_INTRODUCED_83_,X_INTRODUCED_84_):: defines_var(X_INTRODUCED_84_);
constraint int_lin_eq([-5,-1],[X_INTRODUCED_84_,X_INTRODUCED_85_],-9):: defines_var(X_INTRODUCED_85_);
constraint int_le_reif(1,X_INTRODUCED_3_,X_INTRODUCED_96_):: defines_var(X_INTRODUCED_96_);
constraint bool2int(X_INTRODUCED_96_,X_INTRODUCED_97_):: defines_var(X_INTRODUCED_97_);
constraint int_le_reif(1,X_INTRODUCED_8_,X_INTRODUCED_99_):: defines_var(X_INTRODUCED_99_);
constraint bool2int(X_INTRODUCED_99_,X_INTRODUCED_100_):: defines_var(X_INTRODUCED_100_);
constraint int_lin_eq([-5,-1],[X_INTRODUCED_100_,X_INTRODUCED_101_],-7):: defines_var(X_INTRODUCED_101_);
constraint int_le_reif(1,X_INTRODUCED_13_,X_INTRODUCED_102_):: defines_var(X_INTRODUCED_102_);
constraint bool2int(X_INTRODUCED_102_,X_INTRODUCED_103_):: defines_var(X_INTRODUCED_103_);
constraint int_lin_eq([-5,-1],[X_INTRODUCED_103_,X_INTRODUCED_104_],-8):: defines_var(X_INTRODUCED_104_);
constraint int_le_reif(1,X_INTRODUCED_18_,X_INTRODUCED_105_):: defines_var(X_INTRODUCED_105_);
constraint bool2int(X_INTRODUCED_105_,X_INTRODUCED_106_):: defines_var(X_INTRODUCED_106_);
constraint int_lin_eq([-5,-1],[X_INTRODUCED_106_,X_INTRODUCED_107_],-9):: defines_var(X_INTRODUCED_107_);
constraint int_le_reif(1,X_INTRODUCED_4_,X_INTRODUCED_118_):: defines_var(X_INTRODUCED_118_);
constraint bool2int(X_INTRODUCED_118_,X_INTRODUCED_119_):: defines_var(X_INTRODUCED_119_);
constraint int_le_reif(1,X_INTRODUCED_9_,X_INTRODUCED_121_):: defines_var(X_INTRODUCED_121_);
constraint bool2int(X_INTRODUCED_121_,X_INTRODUCED_122_):: defines_var(X_INTRODUCED_122_);
constraint int_lin_eq([-5,-1],[X_INTRODUCED_122_,X_INTRODUCED_123_],-7):: defines_var(X_INTRODUCED_123_);
constraint int_le_reif(1,X_INTRODUCED_14_,X_INTRODUCED_124_):: defines_var(X_INTRODUCED_124_);
constraint bool2int(X_INTRODUCED_124_,X_INTRODUCED_125_):: defines_var(X_INTRODUCED_125_);
constraint int_lin_eq([-5,-1],[X_INTRODUCED_125_,X_INTRODUCED_126_],-8):: defines_var(X_INTRODUCED_126_);
constraint int_le_reif(1,X_INTRODUCED_19_,X_INTRODUCED_127_):: defines_var(X_INTRODUCED_127_);
constraint bool2int(X_INTRODUCED_127_,X_INTRODUCED_128_):: defines_var(X_INTRODUCED_128_);
constraint int_lin_eq([-5,-1],[X_INTRODUCED_128_,X_INTRODUCED_129_],-9):: defines_var(X_INTRODUCED_129_);
constraint int_lin_eq([2,-1],[X_INTRODUCED_33_,X_INTRODUCED_141_],0):: defines_var(X_INTRODUCED_141_);
constraint int_lin_eq([3,-1],[X_INTRODUCED_36_,X_INTRODUCED_143_],0):: defines_var(X_INTRODUCED_143_);
constraint int_lin_eq([4,-1],[X_INTRODUCED_39_,X_INTRODUCED_145_],0):: defines_var(X_INTRODUCED_145_);
constraint int_lin_eq([2,-1],[X_INTRODUCED_56_,X_INTRODUCED_156_],0):: defines_var(X_INTRODUCED_156_);
constraint int_lin_eq([3,-1],[X_INTRODUCED_59_,X_INTRODUCED_157_],0):: defines_var(X_INTRODUCED_157_);
constraint int_lin_eq([4,-1],[X_INTRODUCED_62_,X_INTRODUCED_158_],0):: defines_var(X_INTRODUCED_158_);
constraint int_lin_eq([2,-1],[X_INTRODUCED_78_,X_INTRODUCED_169_],0):: defines_var(X_INTRODUCED_169_);
constraint int_lin_eq([3,-1],[X_INTRODUCED_81_,X_INTRODUCED_170_],0):: defines_var(X_INTRODUCED_170_);
constraint int_lin_eq([4,-1],[X_INTRODUCED_84_,X_INTRODUCED_171_],0):: defines_var(X_INTRODUCED_171_);
constraint int_lin_eq([2,-1],[X_INTRODUCED_100_,X_INTRODUCED_182_],0):: defines_var(X_INTRODUCED_182_);
constraint int_lin_eq([3,-1],[X_INTRODUCED_103_,X_INTRODUCED_183_],0):: defines_var(X_INTRODUCED_183_);
constraint int_lin_eq([4,-1],[X_INTRODUCED_106_,X_INTRODUCED_184_],0):: defines_var(X_INTRODUCED_184_);
constraint int_lin_eq([2,-1],[X_INTRODUCED_122_,X_INTRODUCED_195_],0):: defines_var(X_INTRODUCED_195_);
constraint int_lin_eq([3,-1],[X_INTRODUCED_125_,X_INTRODUCED_196_],0):: defines_var(X_INTRODUCED_196_);
constraint int_lin_eq([4,-1],[X_INTRODUCED_128_,X_INTRODUCED_197_],0):: defines_var(X_INTRODUCED_197_);
constraint int_lin_eq([1,-1,-1],[X_INTRODUCED_155_,X_INTRODUCED_51_,X_INTRODUCED_209_],0):: defines_var(X_INTRODUCED_209_);
constraint int_lin_eq([1,-1,-1],[X_INTRODUCED_168_,X_INTRODUCED_73_,X_INTRODUCED_210_],0):: defines_var(X_INTRODUCED_210_);
constraint int_lin_eq([1,-1,-1],[X_INTRODUCED_181_,X_INTRODUCED_95_,X_INTRODUCED_211_],0):: defines_var(X_INTRODUCED_211_);
constraint int_lin_eq([1,-1,-1],[X_INTRODUCED_194_,X_INTRODUCED_117_,X_INTRODUCED_212_],0):: defines_var(X_INTRODUCED_212_);
constraint int_lin_eq([1,-1,-1],[X_INTRODUCED_207_,X_INTRODUCED_139_,X_INTRODUCED_213_],0):: defines_var(X_INTRODUCED_213_);
constraint int_times(X_INTRODUCED_0_,X_INTRODUCED_20_,X_INTRODUCED_215_):: defines_var(X_INTRODUCED_215_);
constraint int_times(X_INTRODUCED_5_,X_INTRODUCED_21_,X_INTRODUCED_216_):: defines_var(X_INTRODUCED_216_);
constraint int_times(X_INTRODUCED_10_,X_INTRODUCED_22_,X_INTRODUCED_217_):: defines_var(X_INTRODUCED_217_);
constraint int_times(X_INTRODUCED_15_,X_INTRODUCED_23_,X_INTRODUCED_218_):: defines_var(X_INTRODUCED_218_);
constraint int_times(X_INTRODUCED_1_,X_INTRODUCED_20_,X_INTRODUCED_221_):: defines_var(X_INTRODUCED_221_);
constraint int_times(X_INTRODUCED_6_,X_INTRODUCED_21_,X_INTRODUCED_222_):: defines_var(X_INTRODUCED_222_);
constraint int_times(X_INTRODUCED_11_,X_INTRODUCED_22_,X_INTRODUCED_223_):: defines_var(X_INTRODUCED_223_);
constraint int_times(X_INTRODUCED_16_,X_INTRODUCED_23_,X_INTRODUCED_224_):: defines_var(X_INTRODUCED_224_);
constraint int_times(X_INTRODUCED_2_,X_INTRODUCED_20_,X_INTRODUCED_226_):: defines_var(X_INTRODUCED_226_);
constraint int_times(X_INTRODUCED_7_,X_INTRODUCED_21_,X_INTRODUCED_227_):: defines_var(X_INTRODUCED_227_);
constraint int_times(X_INTRODUCED_12_,X_INTRODUCED_22_,X_INTRODUCED_228_):: defines_var(X_INTRODUCED_228_);
constraint int_times(X_INTRODUCED_17_,X_INTRODUCED_23_,X_INTRODUCED_229_):: defines_var(X_INTRODUCED_229_);
constraint int_times(X_INTRODUCED_3_,X_INTRODUCED_20_,X_INTRODUCED_231_):: defines_var(X_INTRODUCED_231_);
constraint int_times(X_INTRODUCED_8_,X_INTRODUCED_21_,X_INTRODUCED_232_):: defines_var(X_INTRODUCED_232_);
constraint int_times(X_INTRODUCED_13_,X_INTRODUCED_22_,X_INTRODUCED_233_):: defines_var(X_INTRODUCED_233_);
constraint int_times(X_INTRODUCED_18_,X_INTRODUCED_23_,X_INTRODUCED_234_):: defines_var(X_INTRODUCED_234_);
constraint int_times(X_INTRODUCED_4_,X_INTRODUCED_20_,X_INTRODUCED_236_):: defines_var(X_INTRODUCED_236_);
constraint int_times(X_INTRODUCED_9_,X_INTRODUCED_21_,X_INTRODUCED_237_):: defines_var(X_INTRODUCED_237_);
constraint int_times(X_INTRODUCED_14_,X_INTRODUCED_22_,X_INTRODUCED_238_):: defines_var(X_INTRODUCED_238_);
constraint int_times(X_INTRODUCED_19_,X_INTRODUCED_23_,X_INTRODUCED_239_):: defines_var(X_INTRODUCED_239_);
solve :: seq_search([int_search(X_INTRODUCED_272_,input_order,indomain_min,complete),int_search(used,input_order,indomain_min,complete)]) minimize objective;
